param target := 2463098;
set E := 1 2 3 4 5 6 7 8 9 10 11 12 13 14 15 16 17 18 19 20 21 ;
param weight := 
  1  518533
  2  1037066
  3  2074132
  4  1648264
  5  796528
  6  1593056
  7  686112
  8  1372224
  9  244448
  10  488896
  11  977792
  12  1955584
  13  1411168
  14  322336
  15  644672
  16  1289344
  17  78688
  18  157376
  19  314752
  20  629504
  21  1259008
;
